Route #1: 1 1 111 60 79 98 31 6 102 72 53 110 114 43 8 86 41 93 2 78 17 116 136 61 35 5 107 1 
Route #2: 1 87 48 58 67 46 30 117 108 92 134 38 103 63 10 113 3 76 129 105 34 121 1 
Route #3: 1 135 59 40 70 124 115 4 126 130 13 68 84 127 128 118 25 109 36 16 32 7 97 9 123 1 
Route #4: 1 101 66 139 82 125 96 142 137 55 95 57 73 51 49 50 71 88 99 52 20 1 
Route #5: 1 138 94 75 26 112 140 141 77 122 22 119 37 14 23 132 104 100 74 81 62 33 21 1 
Route #6: 1 24 106 27 15 131 69 39 42 29 80 47 18 133 28 65 12 54 19 120 85 91 56 83 1 
Route #7: 1 89 45 64 44 11 90 1 

Cost 18253.7
Time 0.1610


 * Other infos *

 Iterations: 143 Time: 0.1610 sec - 0.0027 min - 0.0000 horas
0.0000 h 0.0027 min
Problem dimension: 143
